sifdecoder -A pc64.lnx.gfo -st   A0NSSSSL

 Problem name: A0NSSSSL

 Double precision version will be formed

 The objective function uses 2 linear groups
 
 There are 20004 linear equality constraints
 
 There are 15004 free variables
 There are 10000 variables bounded only from below 
 There are 35008 fixed variables
 
 
 File successfully decoded
 CUTEST: tools (double precision version) compiled successfully
 CUTEst: ipopt (double precision version) compiled successfully

******************************************************************************
This program contains Ipopt, a library for large-scale nonlinear optimization.
 Ipopt is released as open source code under the Eclipse Public License (EPL).
         For more information visit http://projects.coin-or.org/Ipopt
******************************************************************************

This is Ipopt version trunk, running with linear solver ma57.

Number of nonzeros in equality constraint Jacobian...:    76093
Number of nonzeros in inequality constraint Jacobian.:        0
Number of nonzeros in Lagrangian Hessian.............:    30004

Total number of variables............................:    25004
                     variables with only lower bounds:    10000
                variables with lower and upper bounds:        0
                     variables with only upper bounds:        0
Total number of equality constraints.................:    20004
Total number of inequality constraints...............:        0
        inequality constraints with only lower bounds:        0
   inequality constraints with lower and upper bounds:        0
        inequality constraints with only upper bounds:        0

iter    objective    inf_pr   inf_du lg(mu)  ||d||  lg(rg) alpha_du alpha_pr  ls
   0  4.9999900e-01 6.35e+02 6.34e-01  -1.0 0.00e+00    -  0.00e+00 0.00e+00   0
   1  5.5915460e-01 6.34e+02 1.11e+00  -1.0 1.91e+02  -4.0 9.84e-04 2.00e-03h  1
   2  6.8080879e-01 6.33e+02 1.11e+00  -1.0 1.52e+02  -4.5 1.69e-03 1.64e-03f  1
   3  8.5441988e-01 6.32e+02 1.10e+00  -1.0 1.40e+02  -5.0 1.88e-03 1.85e-03f  1
   4  1.0664044e+00 6.30e+02 1.10e+00  -1.0 1.19e+02  -5.4 1.91e-03 2.07e-03f  1
   5  1.3565038e+00 6.29e+02 1.10e+00  -1.0 9.16e+01  -5.9 2.22e-03 2.68e-03f  1
   6  1.6797810e+00 6.27e+02 1.10e+00  -1.0 6.25e+01  -6.4 2.71e-03 2.84e-03f  1
   7  2.1805943e+00 6.24e+02 1.54e+00  -1.0 9.96e+01  -6.9 3.12e-03 4.20e-03f  1
   8  2.8909000e+00 6.21e+02 1.62e+00  -1.0 6.58e+01  -7.3 4.78e-03 5.62e-03f  1
   9  3.8707995e+00 6.16e+02 1.60e+00  -1.0 3.44e+01  -7.8 6.79e-03 7.26e-03f  1
iter    objective    inf_pr   inf_du lg(mu)  ||d||  lg(rg) alpha_du alpha_pr  ls
  10  5.8226215e+00 6.08e+02 2.33e+00  -1.0 3.13e+01  -8.3 8.35e-03 1.32e-02f  1
  11  1.0052570e+01 5.93e+02 3.09e+00  -1.0 3.10e+01  -8.8 1.63e-02 2.50e-02f  1
  12  2.2579195e+01 5.57e+02 3.87e+00  -1.0 3.03e+01  -9.2 2.77e-02 5.97e-02f  1
  13  2.0310515e+02 3.06e+02 2.13e+01  -1.0 2.83e+01  -9.7 5.64e-02 4.52e-01f  1
  14  2.2843445e+02 2.50e+02 4.98e+01  -1.0 3.90e+01 -10.2 9.44e-01 1.83e-01f  1
  15  3.3958233e+02 8.69e+01 9.85e+00  -1.0 1.17e+01 -10.7 3.36e-01 6.52e-01f  1
  16  3.7129358e+02 4.01e+01 5.45e+02  -1.0 1.92e+01 -11.2 7.23e-02 5.38e-01h  1
  17  3.8111657e+02 2.71e+01 4.18e+02  -1.0 1.92e+01 -11.6 9.39e-01 3.25e-01h  1
  18  3.9154293e+02 1.01e+01 5.51e+02  -1.0 1.83e+02 -12.1 4.75e-01 6.27e-01f  1
  19  3.9650285e+02 5.41e+00 5.30e+02  -1.0 9.23e+02 -12.6 3.70e-01 4.64e-01f  1
iter    objective    inf_pr   inf_du lg(mu)  ||d||  lg(rg) alpha_du alpha_pr  ls
  20  4.0088272e+02 3.55e+00 4.20e+02  -1.0 6.95e+02 -13.1 3.58e-01 3.45e-01f  1
  21  4.0244138e+02 8.89e-06 3.25e+02  -1.0 5.85e+02 -13.5 8.53e-01 1.00e+00h  1
  22  4.0901643e+02 2.10e-05 2.28e-04  -1.0 1.14e+00  -3.7 1.00e+00 1.00e+00f  1
  23  1.5258774e+01 1.63e-07 6.74e-02  -2.5 3.75e-01  -4.2 1.00e+00 9.99e-01f  1
  24  6.4916917e-01 1.11e-08 3.40e-06  -3.8 1.53e-01  -4.7 1.00e+00 1.00e+00f  1
Reallocating memory for MA57: lfact (4054729)
  25  4.1419919e-03 5.12e-09 2.43e-07  -5.7 3.28e-02  -5.1 1.00e+00 1.00e+00f  1
Reallocating memory for MA57: lfact (7001202)
  26  7.0905779e-03 1.03e-11 1.39e+05  -5.7 2.08e-03  -5.6 3.73e-02 1.00e+00f  1
  27  7.0099148e-03 9.53e-12 4.49e-09  -5.7 5.44e-03  -6.1 1.00e+00 1.00e+00f  1
  28 -1.6317768e-04 1.30e-11 7.45e+01  -8.6 1.83e-02  -6.6 6.13e-01 9.31e-01f  1
  29 -5.4020436e-04 8.50e-12 5.12e+03  -8.6 6.45e-02  -7.0 7.86e-01 6.25e-01f  1
iter    objective    inf_pr   inf_du lg(mu)  ||d||  lg(rg) alpha_du alpha_pr  ls
  30 -6.7232152e-04 1.72e-09 1.24e+03  -8.6 3.10e-01  -7.5 7.62e-01 4.55e-01f  1
  31 -8.6115787e-04 2.64e-09 4.54e+00  -8.6 8.22e-01  -8.0 1.00e+00 8.85e-01f  1
  32 -9.7853969e-04 2.24e-09 3.18e+00  -8.6 2.17e+00  -8.5 8.88e-01 1.00e+00f  1
  33 -9.0529860e-04 2.18e-09 1.64e+01  -8.6 6.77e+00  -8.9 5.69e-01 1.00e+00h  1
  34 -1.1672979e-03 2.02e-09 6.04e+01  -8.6 2.74e+01  -9.4 3.04e-01 1.00e+00H  1
  35 -9.1944108e-04 1.92e-09 6.81e+01  -8.6 7.43e+00  -9.0 2.59e-01 1.00e+00h  1
  36 -1.2391314e-03 2.21e-09 9.85e+01  -8.6 3.28e+01  -9.5 2.53e-01 1.00e+00H  1
  37 -9.6672787e-04 1.93e-09 9.91e+01  -8.6 8.43e+00  -9.0 2.33e-01 1.00e+00h  1
  38 -1.1474519e-03 1.59e-09 1.16e+02  -8.6 4.10e+01  -9.5 2.88e-01 1.00e+00H  1
  39 -1.1300184e-03 1.34e-09 1.03e+02  -8.6 9.67e+00  -9.1 3.70e-01 1.00e+00H  1
iter    objective    inf_pr   inf_du lg(mu)  ||d||  lg(rg) alpha_du alpha_pr  ls
  40 -1.1618956e-03 1.89e-09 1.20e+02  -8.6 5.34e+01  -9.6 3.15e-01 1.00e+00H  1
  41 -1.1845415e-03 2.11e-09 9.06e+01  -8.6 1.12e+01  -9.2 4.21e-01 1.00e+00h  1
  42 -1.1861698e-03 2.68e-09 2.25e+01  -8.6 7.31e+01  -9.6 4.69e-01 1.07e-01h  1
  43 -1.1861469e-03 2.68e-09 1.25e+01  -8.6 4.24e+00  -3.8 2.83e-01 7.63e-06f 18
  44 -1.1861343e-03 2.68e-09 3.33e+02  -8.6 2.32e-01  -4.3 1.84e-03 8.13e-07f 18
  45 -1.2502480e-03 1.41e-09 2.10e+02  -8.6 3.43e-04  -4.7 4.06e-01 1.00e+00h  1
  46 -1.2285803e-03 1.46e-09 1.56e+02  -8.6 1.02e-03  -5.2 3.21e-01 1.00e+00h  1
  47 -1.2266912e-03 1.44e-09 1.28e+02  -8.6 3.05e-03  -5.7 2.78e-01 1.00e+00h  1
  48 -1.2203637e-03 1.38e-09 1.04e+02  -8.6 9.10e-03  -6.2 2.90e-01 1.00e+00h  1
  49 -1.2120247e-03 1.47e-09 9.15e+01  -8.6 2.72e-02  -6.6 2.24e-01 1.00e+00h  1
iter    objective    inf_pr   inf_du lg(mu)  ||d||  lg(rg) alpha_du alpha_pr  ls
  50 -1.2112022e-03 1.13e-09 4.48e+01  -8.6 8.18e-02  -7.1 3.28e-01 1.00e+00H  1
  51 -1.2080652e-03 1.09e-09 5.87e+01  -8.6 2.43e-01  -7.6 2.22e-01 1.00e+00H  1
  52 -1.2024252e-03 1.07e-09 6.81e+01  -8.6 7.38e-01  -8.1 2.39e-01 1.00e+00H  1
  53 -1.2060831e-03 1.05e-09 7.66e+01  -8.6 2.30e+00  -8.6 2.38e-01 1.00e+00H  1
  54 -1.2065207e-03 1.08e-09 4.93e+01  -8.6 7.86e+00  -9.0 2.82e-01 4.55e-02h  4
  55 -1.2070110e-03 1.10e-09 4.63e+01  -8.6 4.09e+01  -9.5 1.62e-01 4.62e-03h  6
  56 -1.1353050e-03 1.02e-09 5.60e+01  -8.6 1.77e-01  -3.7 1.68e-01 1.00e+00H  1
  57 -1.1959381e-03 1.07e-09 4.50e+01  -8.6 7.46e-01  -4.1 2.30e-01 4.15e-01h  1
  58 -1.1917230e-03 9.54e-10 5.25e+01  -8.6 2.63e-04  -4.6 2.40e-01 1.00e+00H  1
  59 -1.1865869e-03 9.25e-10 4.72e+01  -8.6 7.48e-04  -5.1 2.50e-01 6.60e-01H  1
iter    objective    inf_pr   inf_du lg(mu)  ||d||  lg(rg) alpha_du alpha_pr  ls
  60 -1.1865566e-03 9.25e-10 3.87e+01  -8.6 2.16e-03  -5.6 1.91e-01 1.95e-03f 10
  61 -1.1838571e-03 9.08e-10 4.63e+01  -8.6 6.47e-03  -6.1 2.14e-01 1.00e+00H  1
  62 -1.1783392e-03 8.84e-10 5.19e+01  -8.6 1.97e-02  -6.5 2.65e-01 1.00e+00H  1
  63 -1.1763736e-03 8.64e-10 4.95e+01  -8.6 5.91e-02  -7.0 3.49e-01 1.00e+00H  1
  64 -1.1683172e-03 8.05e-10 5.60e+01  -8.6 1.75e-01  -7.5 2.14e-01 1.00e+00H  1
  65 -1.1705721e-03 7.77e-10 5.54e+01  -8.6 5.28e-01  -8.0 2.84e-01 1.00e+00H  1
  66 -1.1724152e-03 7.77e-10 5.43e+01  -8.6 1.65e+00  -8.4 2.55e-01 8.60e-01H  1
  67 -1.1794384e-03 8.19e-10 5.71e+01  -8.6 5.66e+00  -8.9 3.23e-01 1.00e+00F  1
  68 -1.1942945e-03 8.81e-10 3.69e+01  -8.6 2.75e+01  -9.4 2.90e-01 6.23e-02h  3
  69 -1.1748187e-03 1.96e-09 3.57e+01  -8.6 8.36e-03  -3.5 2.51e-01 1.00e+00h  1
iter    objective    inf_pr   inf_du lg(mu)  ||d||  lg(rg) alpha_du alpha_pr  ls
  70 -1.1761359e-03 1.39e-09 2.11e+01  -8.6 5.96e-02  -4.0 3.85e-01 2.96e-01h  1
  71 -1.1760769e-03 1.37e-09 1.81e+01  -8.6 1.85e-04  -4.5 2.85e-01 1.56e-02h  7
  72 -1.1704755e-03 1.46e-09 1.30e+01  -8.6 5.41e-04  -5.0 4.07e-01 1.00e+00h  1
  73 -1.1727828e-03 9.22e-10 1.40e+01  -8.6 1.64e-03  -5.5 3.96e-01 1.00e+00h  1
  74 -1.1728199e-03 7.25e-10 1.11e+01  -8.6 4.90e-03  -5.9 5.37e-01 1.00e+00h  1
  75 -1.1731090e-03 7.98e-10 5.74e-09  -8.6 1.47e-02  -6.4 1.00e+00 1.00e+00h  1

Number of Iterations....: 75

                                   (scaled)                 (unscaled)
Objective...............:  -1.1731089720081822e-03   -1.1731089720081822e-03
Dual infeasibility......:   5.7358808191492247e-09    5.7358808191492247e-09
Constraint violation....:   7.9844282659913850e-10    7.9844282659913850e-10
Complementarity.........:   9.1607693244289556e-09    9.1607693244289556e-09
Overall NLP error.......:   9.1607693244289556e-09    9.1607693244289556e-09


Number of objective function evaluations             = 166
Number of objective gradient evaluations             = 76
Number of equality constraint evaluations            = 166
Number of inequality constraint evaluations          = 0
Number of equality constraint Jacobian evaluations   = 76
Number of inequality constraint Jacobian evaluations = 0
Number of Lagrangian Hessian evaluations             = 75
Total CPU secs in IPOPT (w/o function evaluations)   =     29.470
Total CPU secs in NLP function evaluations           =      4.642

EXIT: Optimal Solution Found.

************************ CUTEst statistics ************************


 Package used            :  IPOPT
 Problem                 :  A0NSSSSL  
 # variables             =           60012
 # constraints           =           20004
 # objective functions   =        0.2430000E+03
 # objective gradients   =        0.7700000E+02
 # objective Hessians    =        0.7600000E+02
 # Hessian-vector prdct  =        0.0000000E+00
 # constraints functions =        0.2440000E+03
 # constraints gradients =        0.7800000E+02
 # constraints Hessians  =        0.7600000E+02
 Exit code               =               0
 Final f                 =       -1.1731089720081822D-03
 Bounds feasibility      =        9.9998829120941822D-09
 Set up time             =            0.77 seconds
 Solve time              =           68.44 seconds


******************************************************************

